NAME: random-12-28969
TYPE: TSP
COMMENT: size=12 seed=28969
DIMENSION: 26
EDGE_WEIGHT_TYPE: EUC_2D
NODE_COORD_SECTION
+0 983 211
-0 983 211
+1 19 647
-1 922 880
+2 721 202
-2 837 123
+3 164 51
-3 847 839
+4 889 120
-4 731 436
+5 789 696
-5 907 542
+6 376 269
-6 323 261
+7 707 751
-7 956 634
+8 987 745
-8 909 701
+9 729 317
-9 328 348
+10 91 607
-10 519 103
+11 134 970
-11 773 216
+12 686 559
-12 981 424
PRECEDENCE_SECTION
+0 -0
+1 -1
+2 -2
+3 -3
+4 -4
+5 -5
+6 -6
+7 -7
+8 -8
+9 -9
+10 -10
+11 -11
+12 -12
EOF
